(set-logic QF_S)
(set-option :parse-transducers true)
(set-option :produce-models true)
(define-fun-rec toLower ((x String) (y String)) Bool
   (or (and (= x "") (= y ""))
       (and (not (= x "")) (not (= y ""))
           (= (char.code (str.head y))
               (ite (and (<= 65 (char.code (str.head x)))
                       (<= (char.code (str.head x)) 90))
                   (+ (char.code (str.head x)) 32)
                   (char.code (str.head x))))
           (toLower (str.tail x) (str.tail y))))
)
(declare-fun sym395 () String)
(declare-fun sym242 () String)
(declare-fun sym122 () String)
(declare-fun sym1433 () String)
(declare-fun sym851 () String)
(declare-fun sym1079 () String)
(declare-fun sym623 () String)
(declare-fun sym965 () String)
(declare-fun sym737 () String)
(declare-fun sym1307 () String)
(declare-fun sym509 () String)
(declare-fun sym1193 () String)
(declare-fun L26  () String)
(declare-fun L7  () String)
(declare-fun L8  () String)
(declare-fun L5  () String)
(declare-fun L21  () String)
(declare-fun L11  () String)
(declare-fun L22  () String)
(declare-fun L1  () String)
(declare-fun L2  () String)
(declare-fun L62  () String)
(declare-fun L0  () String)
(declare-fun L18  () String)
(assert (toLower sym737  L18 ))
(assert (toLower sym509  L0 ))
(assert (toLower sym122  L62 ))
(assert (toLower sym1433  L2 ))
(assert (toLower sym1193  L1 ))
(assert (toLower sym1307  L22 ))
(assert (toLower sym965  L11 ))
(assert (toLower sym851  L21 ))
(assert (toLower sym395  L5 ))
(assert (toLower sym242  L8 ))
(assert (toLower sym1079  L7 ))
(assert (toLower sym623  L26 ))

(assert (not (= L0 "n" )))
(assert (not (= L1 "/quit" )))
(assert (not (= L2 "/restart" )))
(assert (not (str.contains L1 "/setsize" )))
(assert (not (= L1 "/help" )))
(assert (not (= L5 "n" )))
(assert (not (str.contains L5 "/setfont" )))
(assert (not (= L7 "n" )))
(assert (not (= L8 "n" )))
(assert (not (str.contains L0 "/say" )))
(assert (not (= L5 "/?" )))
(assert (not (= L11 "/restart" )))
(assert (not (= L5 "/clear" )))
(assert (not (str.contains L1 "/say" )))
(assert (not (str.contains L1 "/setfont" )))
(assert (not (= L1 "/clear" )))
(assert (not (str.contains L0 "/setfont" )))
(assert (not (= L11 "y" )))
(assert (not (= L18 "/?" )))
(assert (not (str.contains L8 "/setsize" )))
(assert (not (str.contains L7 "/setsize" )))
(assert (not (str.contains L21 "/say" )))
(assert (not (= L22 "y" )))
(assert (not (= L1 "n" )))
(assert (not (str.contains L22 "/setsize" )))
(assert (not (= L18 "y" )))
(assert (not (str.contains L26 "/setfont" )))
(assert (not (= L21 "/restart" )))
(assert (not (= L22 "/help" )))
(assert (not (= L7 "/help" )))
(assert (not (= L22 "/?" )))
(assert (not (str.contains L5 "/setsize" )))
(assert (not (= L21 "y" )))
(assert (not (= L5 "/quit" )))
(assert (not (= L18 "n" )))
(assert (not (= L26 "/quit" )))
(assert (not (= L8 "/quit" )))
(assert (not (= L21 "/help" )))
(assert (not (= L2 "y" )))
(assert (not (str.contains L7 "/say" )))
(assert (not (= L8 "/clear" )))
(assert (not (= L22 "n" )))
(assert (not (= L8 "y" )))
(assert (not (= L26 "/help" )))
(assert (not (= L1 "/restart" )))
(assert (not (= L7 "y" )))
(assert (not (= L0 "/?" )))
(assert (not (= L22 "/clear" )))
(assert (not (str.contains L5 "/say" )))
(assert (not (= L7 "/quit" )))
(assert (not (str.contains L18 "/setsize" )))
(assert (not (= L21 "/clear" )))
(assert (not (str.contains L22 "/setfont" )))
(assert (not (= L26 "y" )))
(assert (not (= L26 "n" )))
(assert (not (str.contains L26 "/say" )))
(assert (not (str.contains L7 "/setfont" )))
(assert (not (= L11 "n" )))
(assert (not (= L8 "/help" )))
(assert (not (= L18 "/clear" )))
(assert (not (str.contains L8 "/setfont" )))
(assert (not (= L7 "/restart" )))
(assert (= L62 "elementary" ))
(assert (not (= L5 "y" )))
(assert (not (= L0 "/clear" )))
(assert (not (str.contains L0 "/setsize" )))
(assert (not (= L1 "y" )))
(assert (not (= L0 "/restart" )))
(assert (not (= L7 "/clear" )))
(assert (not (= L0 "/quit" )))
(assert (not (str.contains L21 "/setsize" )))
(assert (not (= L26 "/clear" )))
(assert (not (= L0 "/help" )))
(assert (not (= L0 "y" )))
(assert (not (= L5 "/help" )))
(assert (not (= L8 "/restart" )))
(assert (not (= L22 "/restart" )))
(assert (not (str.contains L22 "/say" )))
(assert (not (str.contains L21 "/setfont" )))
(assert (not (= L11 "/help" )))
(assert (not (= L26 "/restart" )))
(assert (not (= L18 "/help" )))
(assert (not (str.contains L11 "/setfont" )))
(assert (not (= L21 "/quit" )))
(assert (not (str.contains L18 "/say" )))
(assert (not (= L7 "/?" )))
(assert (not (= L22 "/quit" )))
(assert (not (str.contains L18 "/setfont" )))
(assert (not (= L18 "/quit" )))
(assert (not (= L11 "/quit" )))
(assert (not (= L8 "/?" )))
(assert (not (str.contains L11 "/setsize" )))
(assert (not (= L1 "/?" )))
(assert (not (= L5 "/restart" )))
(assert (not (= L21 "n" )))
(assert (not (= L18 "/restart" )))
(assert (not (str.contains L11 "/say" )))
(assert (not (= L11 "/clear" )))
(assert (not (str.contains L8 "/say" )))
(assert (not (= L11 "/?" )))
(assert (not (= L21 "/?" )))
(assert (not (str.contains L26 "/setsize" )))
(assert (not (= L26 "/?" )))
(assert (= L2 "n" ))
(check-sat)
(get-model)
(exit)
